words_train/words_412_SAT.qaiger
aag 66 16 0 1 50
32
16
8
22
20
12
26
30
6
4
18
10
28
2
14
24
132
34 21 19
36 34 23
38 36 24
40 38 27
42 40 29
44 41 28
46 45 12
48 30 15
50 31 14
52 51 49
54 52 47
56 55 43
58 21 4
60 20 5
62 61 59
64 63 3
66 33 17
68 32 16
70 69 67
72 70 51
74 73 65
76 63 19
78 18 3
80 79 77
82 81 74
84 35 22
86 85 37
88 86 6
90 87 7
92 91 89
94 92 82
96 94 57
98 71 49
100 99 12
102 101 42
104 44 13
106 37 25
108 107 39
110 109 9
112 108 8
114 113 111
116 114 105
118 39 26
120 119 41
122 120 10
124 121 11
126 125 123
128 126 116
130 128 103
132 130 96
i0 1 x[7]
i1 2 y[7]
i2 2 y[3]
i3 1 x[2]
i4 1 x[1]
i5 2 y[5]
i6 1 x[4]
i7 1 x[6]
i8 2 y[2]
i9 2 y[1]
i10 1 x[0]
i11 2 y[4]
i12 1 x[5]
i13 2 y[0]
i14 2 y[6]
i15 1 x[3]
o0 bool[0]
c
simplified
  ==
    2 y
    add
      unary minus
        1
      xor
        << 3
          1
        1 x
