words_train/words_412_SAT.qaiger.qdimacs
p cnf 66 151
a 9 10 11 12 13 14 15 16 0
e 1 2 3 4 5 6 7 8 17 18 19 20 21 22 23 24 25 26 27 28 29 30 31 32 33 34 35 36 37 38 39 40 41 42 43 44 45 46 47 48 49 50 51 52 53 54 55 56 57 58 59 60 61 62 63 64 65 66 0
10 9 17 0
-10 -17 0
-9 -17 0
-17 11 18 0
17 -18 0
-11 -18 0
-18 -12 19 0
18 -19 0
12 -19 0
-19 13 20 0
19 -20 0
-13 -20 0
-20 14 21 0
20 -21 0
-14 -21 0
20 -14 22 0
-20 -22 0
14 -22 0
22 -6 23 0
-22 -23 0
6 -23 0
-15 7 24 0
15 -24 0
-7 -24 0
15 -7 25 0
-15 -25 0
7 -25 0
25 24 26 0
-25 -26 0
-24 -26 0
-26 23 27 0
26 -27 0
-23 -27 0
27 21 28 0
-27 -28 0
-21 -28 0
10 -2 29 0
-10 -29 0
2 -29 0
-10 2 30 0
10 -30 0
-2 -30 0
30 29 31 0
-30 -31 0
-29 -31 0
31 1 32 0
-31 -32 0
-1 -32 0
16 8 33 0
-16 -33 0
-8 -33 0
-16 -8 34 0
16 -34 0
8 -34 0
34 33 35 0
-34 -35 0
-33 -35 0
-35 25 36 0
35 -36 0
-25 -36 0
36 32 37 0
-36 -37 0
-32 -37 0
31 9 38 0
-31 -38 0
-9 -38 0
-9 1 39 0
9 -39 0
-1 -39 0
39 38 40 0
-39 -40 0
-38 -40 0
40 -37 41 0
-40 -41 0
37 -41 0
17 -11 42 0
-17 -42 0
11 -42 0
42 18 43 0
-42 -43 0
-18 -43 0
-43 -3 44 0
43 -44 0
3 -44 0
43 3 45 0
-43 -45 0
-3 -45 0
45 44 46 0
-45 -46 0
-44 -46 0
-46 -41 47 0
46 -47 0
41 -47 0
-47 28 48 0
47 -48 0
-28 -48 0
35 24 49 0
-35 -49 0
-24 -49 0
49 -6 50 0
-49 -50 0
6 -50 0
50 -21 51 0
-50 -51 0
21 -51 0
-22 6 52 0
22 -52 0
-6 -52 0
18 12 53 0
-18 -53 0
-12 -53 0
53 19 54 0
-53 -54 0
-19 -54 0
54 4 55 0
-54 -55 0
-4 -55 0
-54 -4 56 0
54 -56 0
4 -56 0
56 55 57 0
-56 -57 0
-55 -57 0
-57 52 58 0
57 -58 0
-52 -58 0
19 -13 59 0
-19 -59 0
13 -59 0
59 20 60 0
-59 -60 0
-20 -60 0
-60 -5 61 0
60 -61 0
5 -61 0
60 5 62 0
-60 -62 0
-5 -62 0
62 61 63 0
-62 -63 0
-61 -63 0
-63 -58 64 0
63 -64 0
58 -64 0
-64 51 65 0
64 -65 0
-51 -65 0
-65 -48 66 0
65 -66 0
48 -66 0
66 0
